data/solutions/recovery/degenerate/intermediate/flexible/degenerate_intermediate_instance21/23.sol
Elapsed time: 100.12
Upper bound: 28124937.0
Planning weighted value: 1.01707721401e+11
C[0]=28124937.0
C[1]=28120363.0
C[2]=28118984.0
C[3]=28116871.0
C[4]=28111889.0
C[5]=28107003.0
C[6]=28101555.0
C[7]=28088724.0
C[8]=28084140.0
C[9]=28024080.0
C[10]=0.0
C[11]=0.0
y[0]=9
y[1]=0
y[2]=6
y[3]=5
y[4]=3
y[5]=0
y[6]=9
y[7]=4
y[8]=9
y[9]=0
y[10]=0
y[11]=5
y[12]=8
y[13]=7
y[14]=7
y[15]=8
y[16]=7
y[17]=9
y[18]=6
y[19]=5
y[20]=7
y[21]=8
y[22]=0
y[23]=9
y[24]=8
y[25]=9
y[26]=5
y[27]=6
y[28]=5
y[29]=1
y[30]=7
y[31]=3
y[32]=9
y[33]=3
y[34]=6
y[35]=2
y[36]=5
y[37]=5
y[38]=4
y[39]=3
y[40]=3
y[41]=1
y[42]=7
y[43]=6
y[44]=1
y[45]=1
y[46]=6
y[47]=9
y[48]=8
y[49]=3
y[50]=1
y[51]=9
y[52]=4
y[53]=9
y[54]=4
y[55]=1
y[56]=2
y[57]=2
y[58]=0
y[59]=0
y[60]=2
y[61]=4
y[62]=6
y[63]=3
y[64]=8
