data/solutions/recovery/degenerate/intermediate/flexible/degenerate_intermediate_instance21/23.log

Log started (V12.6.3.0) Sat Apr 21 12:21:45 2018

New value for default parallel thread count: 1

Problem '/tmp/tmpuquyPT.pyomo.lp' read.
Read time = 0.01 sec. (0.52 ticks)

Problem name         : /tmp/tmpuquyPT.pyomo.lp
Objective sense      : Minimize
Variables            :     794  [Nneg: 1,  Binary: 780,  General Integer: 13]
Objective nonzeros   :       1
Linear constraints   :     157  [Less: 77,  Equal: 80]
  Nonzeros           :   36726
  RHS nonzeros       :     131

Variables            : Min LB: 0.000000         Max UB: 1.000000       
Objective nonzeros   : Min   : 1.000000         Max   : 1.000000       
Linear constraints   :
  Nonzeros           : Min   : 1.000000         Max   : 8298339.       
  RHS nonzeros       : Min   : 1.000000         Max   : 7.000000       
Tried aggregator 2 times.
MIP Presolve eliminated 71 rows and 160 columns.
Aggregator did 3 substitutions.
Reduced MIP has 83 rows, 631 columns, and 1684 nonzeros.
Reduced MIP has 620 binaries, 11 generals, 0 SOSs, and 0 indicators.
Presolve time = 0.01 sec. (6.70 ticks)
Found incumbent of value 8.9254840e+07 after 0.01 sec. (7.72 ticks)
Probing time = 0.00 sec. (1.74 ticks)
Cover probing fixed 0 vars, tightened 21 bounds.
Tried aggregator 2 times.
Aggregator did 10 substitutions.
Reduced MIP has 73 rows, 621 columns, and 1664 nonzeros.
Reduced MIP has 620 binaries, 1 generals, 0 SOSs, and 0 indicators.
Presolve time = 0.00 sec. (1.59 ticks)
Probing time = 0.00 sec. (0.94 ticks)
Cover probing fixed 0 vars, tightened 6 bounds.
Clique table members: 62.
MIP emphasis: balance optimality and feasibility.
MIP search method: dynamic search.
Parallel mode: none, using 1 thread.
Root relaxation solution time = 0.00 sec. (0.54 ticks)

        Nodes                                         Cuts/
   Node  Left     Objective  IInf  Best Integer    Best Bound    ItCnt     Gap

*     0+    0                       8.92548e+07        0.0000           100.00%
      0     0   2.80999e+07    16   8.92548e+07   2.80999e+07       21   68.52%
*     0+    0                       3.98308e+07   2.80999e+07            29.45%
      0     0   2.80999e+07    20   3.98308e+07     Fract: 10       58   29.45%
      0     0   2.80999e+07    20   3.98308e+07       Cuts: 6       79   29.45%
*     0+    0                       3.12576e+07   2.80999e+07            10.10%
*     0+    0                       3.03976e+07   2.80999e+07             7.56%
*     0+    0                       2.94499e+07   2.80999e+07             4.58%
*     0+    0                       2.94467e+07   2.80999e+07             4.57%
      0     2   2.80999e+07    16   2.94467e+07   2.80999e+07       79    4.57%
Elapsed time = 0.04 sec. (38.75 ticks, tree = 0.01 MB, solutions = 5)
*   997+  789                       2.92338e+07   2.80999e+07             3.88%
*   997+  754                       2.90761e+07   2.80999e+07             3.36%
*   998+  719                       2.89064e+07   2.80999e+07             2.79%
*   998+  719                       2.88685e+07   2.80999e+07             2.66%
    998   721   2.80999e+07    22   2.88685e+07   2.80999e+07     7343    2.66%
    999   722   2.80999e+07    19   2.88685e+07   2.80999e+07     7694    2.66%
   1000   723   2.80999e+07    18   2.88685e+07   2.80999e+07     7696    2.66%
   1001   724   2.80999e+07    17   2.88685e+07   2.80999e+07     7698    2.66%
   1002   724   2.80999e+07    18   2.88685e+07   2.80999e+07     7707    2.66%
   1003   724   2.80999e+07    17   2.88685e+07   2.80999e+07     7715    2.66%
   1004   724   2.80999e+07    17   2.88685e+07   2.80999e+07     7723    2.66%
   1005   724   2.80999e+07    15   2.88685e+07   2.80999e+07     7725    2.66%
   1006   724   2.80999e+07    19   2.88685e+07   2.80999e+07     7742    2.66%
*  1499+  334                       2.88031e+07   2.80999e+07             2.44%
   1599   369   2.80999e+07    16   2.88031e+07   2.80999e+07    11395    2.44%
Elapsed time = 0.90 sec. (1065.55 ticks, tree = 0.18 MB, solutions = 10)
*  1799+  410                       2.87906e+07   2.80999e+07             2.40%
   3155  1469   2.80999e+07    24   2.87906e+07   2.80999e+07    21691    2.40%
   3156  1470   2.80999e+07    20   2.87906e+07   2.80999e+07    21696    2.40%
   3157  1471   2.80999e+07    29   2.87906e+07   2.80999e+07    21710    2.40%
   3158  1472   2.80999e+07    30   2.87906e+07   2.80999e+07    21711    2.40%
   3159  1473   2.80999e+07    24   2.87906e+07   2.80999e+07    21727    2.40%
   3160  1474   2.80999e+07    22   2.87906e+07   2.80999e+07    21739    2.40%
   3161  1475   2.80999e+07    22   2.87906e+07   2.80999e+07    21740    2.40%
   3162  1476   2.80999e+07    23   2.87906e+07   2.80999e+07    21741    2.40%
   3163  1477   2.80999e+07    22   2.87906e+07   2.80999e+07    21743    2.40%
   3164  1478   2.80999e+07    21   2.87906e+07   2.80999e+07    21745    2.40%
Elapsed time = 1.68 sec. (2021.36 ticks, tree = 0.73 MB, solutions = 11)
   6666  4130        cutoff         2.87906e+07   2.80999e+07    47729    2.40%
   6667  4131   2.80999e+07    24   2.87906e+07   2.80999e+07    47765    2.40%
   6668  4132   2.80999e+07    25   2.87906e+07   2.80999e+07    47775    2.40%
   6669  4133   2.80999e+07    25   2.87906e+07   2.80999e+07    47784    2.40%
   6670  4134   2.80999e+07    23   2.87906e+07   2.80999e+07    47785    2.40%
   6671  4135   2.80999e+07    25   2.87906e+07   2.80999e+07    47790    2.40%
   6672  4136   2.80999e+07    23   2.87906e+07   2.80999e+07    47794    2.40%
   6673  4137   2.80999e+07    23   2.87906e+07   2.80999e+07    47798    2.40%
   6674  4138   2.80999e+07    25   2.87906e+07   2.80999e+07    47839    2.40%
   6675  4137        cutoff         2.87906e+07   2.80999e+07    47849    2.40%
Elapsed time = 2.40 sec. (2980.17 ticks, tree = 2.13 MB, solutions = 11)
  10275  6984   2.81156e+07    19   2.87906e+07   2.80999e+07    75347    2.40%
  10276  6983        cutoff         2.87906e+07   2.80999e+07    75355    2.40%
  10277  6982        cutoff         2.87906e+07   2.80999e+07    75369    2.40%
  10278  6983   2.80999e+07    21   2.87906e+07   2.80999e+07    75390    2.40%
  10279  6984   2.80999e+07    21   2.87906e+07   2.80999e+07    75398    2.40%
  10280  6985   2.80999e+07    18   2.87906e+07   2.80999e+07    75409    2.40%
  10281  6986   2.80999e+07    24   2.87906e+07   2.80999e+07    75432    2.40%
  10282  6987   2.80999e+07    25   2.87906e+07   2.80999e+07    75448    2.40%
  10283  6988   2.80999e+07    25   2.87906e+07   2.80999e+07    75451    2.40%
  10284  6989   2.80999e+07    25   2.87906e+07   2.80999e+07    75452    2.40%
Elapsed time = 3.13 sec. (3939.16 ticks, tree = 3.48 MB, solutions = 11)
* 10959+ 7290                       2.87420e+07   2.80999e+07             2.23%
* 10959+ 7132                       2.86701e+07   2.80999e+07             1.99%
  11884  7813   2.80999e+07    31   2.86701e+07   2.80999e+07    91876    1.99%
  11885  7814   2.80999e+07    26   2.86701e+07   2.80999e+07    91900    1.99%
  11886  7815   2.80999e+07    23   2.86701e+07   2.80999e+07    91904    1.99%
  11887  7816   2.80999e+07    21   2.86701e+07   2.80999e+07    91906    1.99%
  11888  7817   2.80999e+07    22   2.86701e+07   2.80999e+07    91914    1.99%
  11889  7818   2.80999e+07    22   2.86701e+07   2.80999e+07    91915    1.99%
  11890  7819   2.80999e+07    22   2.86701e+07   2.80999e+07    91917    1.99%
  11891  7820   2.80999e+07    22   2.86701e+07   2.80999e+07    91918    1.99%
  11892  7821   2.80999e+07    22   2.86701e+07   2.80999e+07    91920    1.99%
  11893  7822   2.80999e+07    23   2.86701e+07   2.80999e+07    91921    1.99%
Elapsed time = 4.00 sec. (4895.83 ticks, tree = 3.89 MB, solutions = 13)
  14441  9815   2.80999e+07    26   2.86701e+07   2.80999e+07   121191    1.99%
  14442  9814   2.85599e+07    18   2.86701e+07   2.80999e+07   121235    1.99%
  14443  9815   2.80999e+07    17   2.86701e+07   2.80999e+07   121270    1.99%
  14444  9816   2.83252e+07    19   2.86701e+07   2.80999e+07   121295    1.99%
  14445  9817   2.84681e+07    17   2.86701e+07   2.80999e+07   121299    1.99%
  14446  9817   2.84681e+07    18   2.86701e+07   2.80999e+07   121302    1.99%
  14447  9818   2.84681e+07    17   2.86701e+07   2.80999e+07   121303    1.99%
  14448  9819   2.84681e+07    17   2.86701e+07   2.80999e+07   121304    1.99%
  14449  9820   2.84681e+07    18   2.86701e+07   2.80999e+07   121307    1.99%
  14450  9821   2.84681e+07    17   2.86701e+07   2.80999e+07   121309    1.99%
Elapsed time = 4.71 sec. (5852.25 ticks, tree = 5.05 MB, solutions = 13)
  16544 11245   2.81156e+07    19   2.86701e+07   2.80999e+07   147775    1.99%
  16545 11246   2.81156e+07    23   2.86701e+07   2.80999e+07   147789    1.99%
  16546 11247   2.81156e+07    23   2.86701e+07   2.80999e+07   147790    1.99%
  16547 11248   2.81156e+07    23   2.86701e+07   2.80999e+07   147791    1.99%
  16548 11249   2.81156e+07    22   2.86701e+07   2.80999e+07   147793    1.99%
  16549 11249   2.84293e+07    18   2.86701e+07   2.80999e+07   147817    1.99%
  16550 11250   2.85027e+07    15   2.86701e+07   2.80999e+07   147818    1.99%
  16551 11249        cutoff         2.86701e+07   2.80999e+07   147820    1.99%
  16552 11248        cutoff         2.86701e+07   2.80999e+07   147822    1.99%
  16553 11247        cutoff         2.86701e+07   2.80999e+07   147836    1.99%
Elapsed time = 5.40 sec. (6808.57 ticks, tree = 5.76 MB, solutions = 13)
  18190 12422   2.80999e+07    28   2.86701e+07   2.80999e+07   172459    1.99%
  18191 12423   2.80999e+07    27   2.86701e+07   2.80999e+07   172464    1.99%
  18192 12424   2.80999e+07    25   2.86701e+07   2.80999e+07   172483    1.99%
  18193 12425   2.80999e+07    24   2.86701e+07   2.80999e+07   172487    1.99%
  18194 12426   2.80999e+07    24   2.86701e+07   2.80999e+07   172501    1.99%
  18195 12427   2.80999e+07    26   2.86701e+07   2.80999e+07   172529    1.99%
  18196 12428   2.80999e+07    26   2.86701e+07   2.80999e+07   172549    1.99%
  18197 12429   2.80999e+07    24   2.86701e+07   2.80999e+07   172554    1.99%
  18198 12430   2.80999e+07    24   2.86701e+07   2.80999e+07   172576    1.99%
  18199 12431   2.80999e+07    22   2.86701e+07   2.80999e+07   172579    1.99%
Elapsed time = 6.11 sec. (7765.57 ticks, tree = 6.35 MB, solutions = 13)
  20363 14044   2.80999e+07    19   2.86701e+07   2.80999e+07   198901    1.99%
  20364 14045   2.80999e+07    20   2.86701e+07   2.80999e+07   198923    1.99%
  20365 14046   2.80999e+07    32   2.86701e+07   2.80999e+07   199015    1.99%
  20366 14047   2.80999e+07    20   2.86701e+07   2.80999e+07   199023    1.99%
  20367 14048   2.80999e+07    32   2.86701e+07   2.80999e+07   199102    1.99%
  20368 14049   2.81005e+07    24   2.86701e+07   2.80999e+07   199123    1.99%
  20369 14050   2.80999e+07    26   2.86701e+07   2.80999e+07   199162    1.99%
  20370 14051   2.80999e+07    26   2.86701e+07   2.80999e+07   199189    1.99%
  20371 14052   2.80999e+07    30   2.86701e+07   2.80999e+07   199203    1.99%
  20372 14053   2.80999e+07    31   2.86701e+07   2.80999e+07   199212    1.99%
Elapsed time = 6.81 sec. (8730.41 ticks, tree = 7.18 MB, solutions = 13)
  21553 14829   2.80999e+07    43   2.86701e+07   2.80999e+07   223933    1.99%
  21554 14830   2.80999e+07    40   2.86701e+07   2.80999e+07   223935    1.99%
  21555 14831   2.80999e+07    38   2.86701e+07   2.80999e+07   223937    1.99%
  21556 14832   2.80999e+07    30   2.86701e+07   2.80999e+07   223976    1.99%
  21557 14833   2.80999e+07    26   2.86701e+07   2.80999e+07   223984    1.99%
  21558 14834   2.80999e+07    44   2.86701e+07   2.80999e+07   224081    1.99%
  21559 14835   2.80999e+07    36   2.86701e+07   2.80999e+07   224088    1.99%
  21560 14836   2.80999e+07    24   2.86701e+07   2.80999e+07   224122    1.99%
  21561 14837   2.80999e+07    33   2.86701e+07   2.80999e+07   224156    1.99%
  26300 18409   2.81155e+07    22   2.86701e+07   2.80999e+07   305809    1.99%
Elapsed time = 9.48 sec. (12545.44 ticks, tree = 9.84 MB, solutions = 13)
  32861 23115   2.80999e+07    28   2.86701e+07   2.80999e+07   413064    1.99%
  32862 23116   2.80999e+07    25   2.86701e+07   2.80999e+07   413080    1.99%
  32863 23117   2.80999e+07    27   2.86701e+07   2.80999e+07   413096    1.99%
  32864 23118   2.80999e+07    28   2.86701e+07   2.80999e+07   413116    1.99%
  32865 23119   2.80999e+07    28   2.86701e+07   2.80999e+07   413144    1.99%
  32866 23120   2.80999e+07    27   2.86701e+07   2.80999e+07   413159    1.99%
  32867 23121   2.80999e+07    30   2.86701e+07   2.80999e+07   413183    1.99%
  32868 23122   2.80999e+07    30   2.86701e+07   2.80999e+07   413196    1.99%
  32869 23123   2.80999e+07    30   2.86701e+07   2.80999e+07   413232    1.99%
  32870 23124   2.80999e+07    34   2.86701e+07   2.80999e+07   413250    1.99%
Elapsed time = 12.33 sec. (16366.37 ticks, tree = 12.23 MB, solutions = 13)
  39451 28050   2.81089e+07    32   2.86701e+07   2.80999e+07   523234    1.99%
  39452 28051   2.81089e+07    31   2.86701e+07   2.80999e+07   523235    1.99%
  39453 28052   2.81090e+07    32   2.86701e+07   2.80999e+07   523250    1.99%
  39454 28053   2.81090e+07    29   2.86701e+07   2.80999e+07   523252    1.99%
  39455 28054   2.81090e+07    28   2.86701e+07   2.80999e+07   523257    1.99%
  39456 28055   2.81140e+07    26   2.86701e+07   2.80999e+07   523277    1.99%
  39457 28056   2.81141e+07    42   2.86701e+07   2.80999e+07   523301    1.99%
  39458 28057   2.81141e+07    40   2.86701e+07   2.80999e+07   523303    1.99%
  39459 28056        cutoff         2.86701e+07   2.80999e+07   523311    1.99%
  39460 28055        cutoff         2.86701e+07   2.80999e+07   523316    1.99%
Elapsed time = 15.33 sec. (20185.40 ticks, tree = 14.77 MB, solutions = 13)
* 39879+27513                       2.85260e+07   2.80999e+07             1.49%
  46279 32604   2.81080e+07    23   2.85260e+07   2.80999e+07   615919    1.49%
  46280 32605   2.81080e+07    23   2.85260e+07   2.80999e+07   615919    1.49%
  46281 32606   2.81081e+07    25   2.85260e+07   2.80999e+07   615927    1.49%
  46282 32607   2.81085e+07    25   2.85260e+07   2.80999e+07   615935    1.49%
  46283 32608   2.81085e+07    26   2.85260e+07   2.80999e+07   615936    1.49%
  46284 32609   2.81085e+07    24   2.85260e+07   2.80999e+07   615937    1.49%
  46285 32610   2.81086e+07    24   2.85260e+07   2.80999e+07   615938    1.49%
  46286 32610   2.84862e+07    25   2.85260e+07   2.80999e+07   615969    1.49%
  46287 32609        cutoff         2.85260e+07   2.80999e+07   615970    1.49%
  46288 32610   2.81072e+07    20   2.85260e+07   2.80999e+07   616118    1.49%
Elapsed time = 18.96 sec. (24013.44 ticks, tree = 17.03 MB, solutions = 14)
  52566 37366   2.80999e+07    22   2.85260e+07   2.80999e+07   711283    1.49%
  52567 37367   2.81018e+07    29   2.85260e+07   2.80999e+07   711318    1.49%
  52568 37368   2.81025e+07    25   2.85260e+07   2.80999e+07   711341    1.49%
  52569 37369   2.81035e+07    26   2.85260e+07   2.80999e+07   711343    1.49%
  52570 37370   2.81037e+07    24   2.85260e+07   2.80999e+07   711344    1.49%
  52571 37371   2.81037e+07    27   2.85260e+07   2.80999e+07   711361    1.49%
  52572 37372   2.81128e+07    31   2.85260e+07   2.80999e+07   711376    1.49%
  52573 37373   2.81128e+07    25   2.85260e+07   2.80999e+07   711393    1.49%
  52574 37374   2.81128e+07    23   2.85260e+07   2.80999e+07   711406    1.49%
  52575 37375   2.81128e+07    23   2.85260e+07   2.80999e+07   711408    1.49%
Elapsed time = 22.50 sec. (27832.87 ticks, tree = 20.34 MB, solutions = 14)
* 54999+39034                       2.84889e+07   2.80999e+07             1.37%
* 54999+38948                       2.84729e+07   2.80999e+07             1.31%
* 55099+38432                       2.83864e+07   2.80999e+07             1.01%
* 55199+38417                       2.83750e+07   2.80999e+07             0.97%
* 55199+38110                       2.83379e+07   2.80999e+07             0.84%
* 55199+37280                       2.82718e+07   2.80999e+07             0.61%
* 55299+37162                       2.82563e+07   2.80999e+07             0.55%
* 57112 36752      integral     0   2.82106e+07   2.80999e+07   778649    0.39%
  58435 37447   2.80999e+07    15   2.82106e+07   2.80999e+07   791995    0.39%
  58436 37448   2.80999e+07    15   2.82106e+07   2.80999e+07   791996    0.39%
  58437 37449   2.80999e+07    15   2.82106e+07   2.80999e+07   792001    0.39%
  58438 37450   2.80999e+07    15   2.82106e+07   2.80999e+07   792004    0.39%
  58439 37451   2.80999e+07    15   2.82106e+07   2.80999e+07   792032    0.39%
  58440 37452   2.80999e+07    19   2.82106e+07   2.80999e+07   792042    0.39%
  58441 37453   2.80999e+07    17   2.82106e+07   2.80999e+07   792044    0.39%
  58442 37454   2.80999e+07    15   2.82106e+07   2.80999e+07   792045    0.39%
  58443 37455   2.80999e+07    16   2.82106e+07   2.80999e+07   792046    0.39%
  58444 37456   2.80999e+07    15   2.82106e+07   2.80999e+07   792052    0.39%
Elapsed time = 26.05 sec. (31652.62 ticks, tree = 20.32 MB, solutions = 22)
* 58589 37507      integral     0   2.82051e+07   2.80999e+07   792647    0.37%
* 58590 37330      integral     0   2.81889e+07   2.80999e+07   792648    0.32%
* 59123 37621      integral     0   2.81859e+07   2.80999e+07   797660    0.31%
* 61479 38225      integral     0   2.81821e+07   2.80999e+07   823181    0.29%
  65176 39739   2.80999e+07    28   2.81821e+07   2.80999e+07   860592    0.29%
  65177 39739   2.80999e+07    26   2.81821e+07   2.80999e+07   860602    0.29%
  65178 39738        cutoff         2.81821e+07   2.80999e+07   860604    0.29%
  65179 39739   2.80999e+07    25   2.81821e+07   2.80999e+07   860654    0.29%
  65180 39738   2.81428e+07    18   2.81821e+07   2.80999e+07   860661    0.29%
  65181 39737    infeasible         2.81821e+07   2.80999e+07   860661    0.29%
  65182 39738   2.80999e+07    15   2.81821e+07   2.80999e+07   860675    0.29%
  65183 39739   2.80999e+07    15   2.81821e+07   2.80999e+07   860687    0.29%
  65184 39740   2.80999e+07    15   2.81821e+07   2.80999e+07   860688    0.29%
  65185 39741   2.80999e+07    15   2.81821e+07   2.80999e+07   860692    0.29%
Elapsed time = 29.83 sec. (35473.96 ticks, tree = 21.73 MB, solutions = 26)
  71622 44355   2.80999e+07    30   2.81821e+07   2.80999e+07   954199    0.29%
  71623 44356   2.80999e+07    35   2.81821e+07   2.80999e+07   954267    0.29%
  71624 44357   2.80999e+07    33   2.81821e+07   2.80999e+07   954272    0.29%
  71625 44358   2.80999e+07    35   2.81821e+07   2.80999e+07   954306    0.29%
  71626 44359   2.80999e+07    32   2.81821e+07   2.80999e+07   954321    0.29%
  71627 44360   2.80999e+07    30   2.81821e+07   2.80999e+07   954336    0.29%
  71628 44361   2.80999e+07    32   2.81821e+07   2.80999e+07   954375    0.29%
  71629 44362   2.80999e+07    30   2.81821e+07   2.80999e+07   954377    0.29%
  71630 44363   2.80999e+07    27   2.81821e+07   2.80999e+07   954410    0.29%
  71631 44364   2.80999e+07    28   2.81821e+07   2.80999e+07   954421    0.29%
Elapsed time = 33.50 sec. (39301.94 ticks, tree = 24.02 MB, solutions = 26)
  77634 48597   2.80999e+07    34   2.81821e+07   2.80999e+07  1053485    0.29%
  77635 48598   2.80999e+07    31   2.81821e+07   2.80999e+07  1053569    0.29%
  77636 48599   2.80999e+07    35   2.81821e+07   2.80999e+07  1053630    0.29%
  77637 48600   2.80999e+07    33   2.81821e+07   2.80999e+07  1053640    0.29%
  77638 48601   2.80999e+07    33   2.81821e+07   2.80999e+07  1053647    0.29%
  77639 48602   2.80999e+07    33   2.81821e+07   2.80999e+07  1053652    0.29%
  77640 48603   2.81035e+07    26   2.81821e+07   2.80999e+07  1053665    0.29%
  77641 48602   2.81781e+07    18   2.81821e+07   2.80999e+07  1053677    0.29%
  77642 48603   2.81156e+07    20   2.81821e+07   2.80999e+07  1053705    0.29%
  77643 48602        cutoff         2.81821e+07   2.80999e+07  1053715    0.29%
Elapsed time = 37.11 sec. (43124.09 ticks, tree = 26.16 MB, solutions = 26)
  83564 52678   2.81304e+07    19   2.81821e+07   2.80999e+07  1155328    0.29%
  83565 52677        cutoff         2.81821e+07   2.80999e+07  1155335    0.29%
  83566 52676    infeasible         2.81821e+07   2.80999e+07  1155335    0.29%
  83567 52675        cutoff         2.81821e+07   2.80999e+07  1155422    0.29%
  83568 52676   2.80999e+07    23   2.81821e+07   2.80999e+07  1155459    0.29%
  83569 52677   2.80999e+07    23   2.81821e+07   2.80999e+07  1155462    0.29%
  83570 52678   2.80999e+07    19   2.81821e+07   2.80999e+07  1155489    0.29%
  83571 52679   2.80999e+07    19   2.81821e+07   2.80999e+07  1155491    0.29%
  83572 52680   2.80999e+07    23   2.81821e+07   2.80999e+07  1155496    0.29%
  83573 52681   2.80999e+07    20   2.81821e+07   2.80999e+07  1155499    0.29%
Elapsed time = 40.71 sec. (46947.53 ticks, tree = 28.21 MB, solutions = 26)
  90603 57567   2.81078e+07    21   2.81821e+07   2.80999e+07  1254556    0.29%
  90604 57568   2.81078e+07    19   2.81821e+07   2.80999e+07  1254557    0.29%
  90605 57569   2.81081e+07    22   2.81821e+07   2.80999e+07  1254592    0.29%
  90606 57570   2.81081e+07    22   2.81821e+07   2.80999e+07  1254595    0.29%
  90607 57571   2.81081e+07    21   2.81821e+07   2.80999e+07  1254597    0.29%
  90608 57570        cutoff         2.81821e+07   2.80999e+07  1254602    0.29%
  90609 57571   2.81156e+07    15   2.81821e+07   2.80999e+07  1254637    0.29%
  90610 57570        cutoff         2.81821e+07   2.80999e+07  1254664    0.29%
  90611 57569    infeasible         2.81821e+07   2.80999e+07  1254669    0.29%
  90612 57570   2.80999e+07    21   2.81821e+07   2.80999e+07  1254772    0.29%
Elapsed time = 44.28 sec. (50769.48 ticks, tree = 30.64 MB, solutions = 26)
  98075 62862   2.81156e+07    15   2.81821e+07   2.80999e+07  1350837    0.29%
  98076 62863   2.81156e+07    14   2.81821e+07   2.80999e+07  1350838    0.29%
  98077 62862        cutoff         2.81821e+07   2.80999e+07  1350861    0.29%
  98078 62861        cutoff         2.81821e+07   2.80999e+07  1350867    0.29%
  98079 62862   2.81012e+07    27   2.81821e+07   2.80999e+07  1350940    0.29%
  98080 62863   2.81012e+07    24   2.81821e+07   2.80999e+07  1350954    0.29%
  98081 62864   2.81012e+07    24   2.81821e+07   2.80999e+07  1350955    0.29%
  98082 62865   2.81028e+07    28   2.81821e+07   2.80999e+07  1350969    0.29%
  98083 62866   2.81074e+07    24   2.81821e+07   2.80999e+07  1350983    0.29%
  98084 62867   2.81074e+07    25   2.81821e+07   2.80999e+07  1350992    0.29%
Elapsed time = 47.83 sec. (54589.58 ticks, tree = 33.26 MB, solutions = 26)
 105079 67913        cutoff         2.81821e+07   2.80999e+07  1447063    0.29%
 105080 67914   2.80999e+07    41   2.81821e+07   2.80999e+07  1447197    0.29%
 105081 67915   2.80999e+07    40   2.81821e+07   2.80999e+07  1447203    0.29%
 105082 67916   2.80999e+07    36   2.81821e+07   2.80999e+07  1447205    0.29%
 105083 67917   2.80999e+07    32   2.81821e+07   2.80999e+07  1447210    0.29%
 105084 67918   2.80999e+07    26   2.81821e+07   2.80999e+07  1447220    0.29%
 105085 67919   2.80999e+07    31   2.81821e+07   2.80999e+07  1447226    0.29%
 105086 67920   2.80999e+07    29   2.81821e+07   2.80999e+07  1447233    0.29%
 105087 67921   2.80999e+07    33   2.81821e+07   2.80999e+07  1447249    0.29%
 105088 67922   2.80999e+07    34   2.81821e+07   2.80999e+07  1447349    0.29%
Elapsed time = 51.35 sec. (58414.20 ticks, tree = 37.67 MB, solutions = 26)
 112912 73935   2.80999e+07    37   2.81821e+07   2.80999e+07  1547131    0.29%
 112913 73936   2.80999e+07    32   2.81821e+07   2.80999e+07  1547132    0.29%
 112914 73937   2.80999e+07    32   2.81821e+07   2.80999e+07  1547144    0.29%
 112915 73938   2.80999e+07    32   2.81821e+07   2.80999e+07  1547268    0.29%
 112916 73939   2.80999e+07    33   2.81821e+07   2.80999e+07  1547280    0.29%
 112917 73940   2.80999e+07    33   2.81821e+07   2.80999e+07  1547293    0.29%
 112918 73941   2.80999e+07    33   2.81821e+07   2.80999e+07  1547297    0.29%
 112919 73942   2.80999e+07    34   2.81821e+07   2.80999e+07  1547299    0.29%
 112920 73943   2.80999e+07    32   2.81821e+07   2.80999e+07  1547305    0.29%
 112921 73944   2.80999e+07    32   2.81821e+07   2.80999e+07  1547306    0.29%
Elapsed time = 54.94 sec. (62240.55 ticks, tree = 40.73 MB, solutions = 26)
 120069 78958   2.80999e+07    20   2.81821e+07   2.80999e+07  1645668    0.29%
 120070 78959   2.80999e+07    26   2.81821e+07   2.80999e+07  1645682    0.29%
 120071 78960   2.80999e+07    24   2.81821e+07   2.80999e+07  1645693    0.29%
 120072 78961   2.80999e+07    24   2.81821e+07   2.80999e+07  1645703    0.29%
 120073 78962   2.80999e+07    27   2.81821e+07   2.80999e+07  1645735    0.29%
 120074 78963   2.80999e+07    24   2.81821e+07   2.80999e+07  1645778    0.29%
 120075 78964   2.80999e+07    29   2.81821e+07   2.80999e+07  1645850    0.29%
 120076 78965   2.80999e+07    30   2.81821e+07   2.80999e+07  1645857    0.29%
 120077 78966   2.80999e+07    22   2.81821e+07   2.80999e+07  1645916    0.29%
 120078 78967   2.80999e+07    30   2.81821e+07   2.80999e+07  1645963    0.29%
Elapsed time = 58.67 sec. (66063.62 ticks, tree = 43.25 MB, solutions = 26)
 127414 84630   2.80999e+07    27   2.81821e+07   2.80999e+07  1741030    0.29%
 127415 84631   2.80999e+07    29   2.81821e+07   2.80999e+07  1741034    0.29%
 127416 84632   2.80999e+07    29   2.81821e+07   2.80999e+07  1741038    0.29%
 127417 84633   2.80999e+07    27   2.81821e+07   2.80999e+07  1741045    0.29%
 127418 84634   2.80999e+07    28   2.81821e+07   2.80999e+07  1741046    0.29%
 127419 84635   2.80999e+07    26   2.81821e+07   2.80999e+07  1741052    0.29%
 127420 84636   2.80999e+07    22   2.81821e+07   2.80999e+07  1741072    0.29%
 127421 84637   2.80999e+07    22   2.81821e+07   2.80999e+07  1741078    0.29%
 127422 84638   2.80999e+07    31   2.81821e+07   2.80999e+07  1741123    0.29%
 127423 84639   2.80999e+07    29   2.81821e+07   2.80999e+07  1741125    0.29%
Elapsed time = 62.21 sec. (69882.21 ticks, tree = 46.03 MB, solutions = 26)
 134593 90155   2.80999e+07    27   2.81821e+07   2.80999e+07  1836682    0.29%
 134594 90156   2.81039e+07    25   2.81821e+07   2.80999e+07  1836729    0.29%
 134595 90156   2.81040e+07    31   2.81821e+07   2.80999e+07  1836736    0.29%
 134596 90156   2.81041e+07    35   2.81821e+07   2.80999e+07  1836740    0.29%
 134597 90157   2.81050e+07    29   2.81821e+07   2.80999e+07  1836742    0.29%
 134598 90158   2.81050e+07    29   2.81821e+07   2.80999e+07  1836743    0.29%
 134599 90159   2.81050e+07    27   2.81821e+07   2.80999e+07  1836744    0.29%
 134600 90160   2.81050e+07    23   2.81821e+07   2.80999e+07  1836747    0.29%
 134601 90161   2.81050e+07    23   2.81821e+07   2.80999e+07  1836749    0.29%
 134602 90162   2.81050e+07    24   2.81821e+07   2.80999e+07  1836750    0.29%
Elapsed time = 65.75 sec. (73701.47 ticks, tree = 48.72 MB, solutions = 26)
 142339 96229   2.80999e+07    24   2.81821e+07   2.80999e+07  1935056    0.29%
 142340 96230   2.80999e+07    22   2.81821e+07   2.80999e+07  1935064    0.29%
 142341 96231   2.80999e+07    32   2.81821e+07   2.80999e+07  1935113    0.29%
 142342 96232   2.80999e+07    31   2.81821e+07   2.80999e+07  1935124    0.29%
 142343 96233   2.80999e+07    30   2.81821e+07   2.80999e+07  1935150    0.29%
 142344 96234   2.80999e+07    38   2.81821e+07   2.80999e+07  1935251    0.29%
 142345 96235   2.80999e+07    39   2.81821e+07   2.80999e+07  1935317    0.29%
 142346 96236   2.80999e+07    31   2.81821e+07   2.80999e+07  1935374    0.29%
 142347 96237   2.80999e+07    29   2.81821e+07   2.80999e+07  1935389    0.29%
 142348 96238   2.80999e+07    31   2.81821e+07   2.80999e+07  1935431    0.29%
Elapsed time = 69.34 sec. (77527.88 ticks, tree = 51.77 MB, solutions = 26)
 150363 102345   2.80999e+07    27   2.81821e+07   2.80999e+07  2035644    0.29%
 150364 102346   2.80999e+07    32   2.81821e+07   2.80999e+07  2035651    0.29%
 150365 102347   2.80999e+07    33   2.81821e+07   2.80999e+07  2035656    0.29%
 150366 102348   2.80999e+07    32   2.81821e+07   2.80999e+07  2035658    0.29%
 150367 102349   2.81760e+07    30   2.81821e+07   2.80999e+07  2035664    0.29%
 150368 102348   2.81821e+07    27   2.81821e+07   2.80999e+07  2035670    0.29%
 150369 102347        cutoff         2.81821e+07   2.80999e+07  2035672    0.29%
 150370 102347   2.81021e+07    42   2.81821e+07   2.80999e+07  2035846    0.29%
 150371 102348   2.81021e+07    40   2.81821e+07   2.80999e+07  2035847    0.29%
 150372 102349   2.81022e+07    40   2.81821e+07   2.80999e+07  2035849    0.29%
Elapsed time = 72.89 sec. (81350.08 ticks, tree = 54.81 MB, solutions = 26)
 158419 108258   2.81087e+07    23   2.81821e+07   2.80999e+07  2133640    0.29%
 158420 108259   2.81087e+07    23   2.81821e+07   2.80999e+07  2133643    0.29%
 158421 108260   2.81088e+07    30   2.81821e+07   2.80999e+07  2133651    0.29%
 158422 108261   2.81088e+07    28   2.81821e+07   2.80999e+07  2133652    0.29%
 158423 108262   2.81088e+07    28   2.81821e+07   2.80999e+07  2133654    0.29%
 158424 108263   2.81090e+07    27   2.81821e+07   2.80999e+07  2133661    0.29%
 158425 108264   2.81090e+07    27   2.81821e+07   2.80999e+07  2133662    0.29%
 158426 108265   2.81090e+07    30   2.81821e+07   2.80999e+07  2133663    0.29%
 158427 108266   2.81090e+07    28   2.81821e+07   2.80999e+07  2133664    0.29%
 158428 108267   2.81090e+07    32   2.81821e+07   2.80999e+07  2133668    0.29%
Elapsed time = 76.45 sec. (85166.61 ticks, tree = 57.76 MB, solutions = 26)
 166237 114357   2.81096e+07    22   2.81821e+07   2.80999e+07  2228211    0.29%
 166238 114358   2.81096e+07    22   2.81821e+07   2.80999e+07  2228216    0.29%
 166239 114359   2.81096e+07    22   2.81821e+07   2.80999e+07  2228223    0.29%
 166240 114360   2.81096e+07    23   2.81821e+07   2.80999e+07  2228226    0.29%
 166241 114361   2.81096e+07    23   2.81821e+07   2.80999e+07  2228227    0.29%
 166242 114362   2.81096e+07    23   2.81821e+07   2.80999e+07  2228232    0.29%
 166243 114361        cutoff         2.81821e+07   2.80999e+07  2228243    0.29%
 166244 114362   2.81096e+07    22   2.81821e+07   2.80999e+07  2228245    0.29%
 166245 114363   2.81096e+07    23   2.81821e+07   2.80999e+07  2228246    0.29%
 166246 114364   2.81096e+07    25   2.81821e+07   2.80999e+07  2228254    0.29%
Elapsed time = 79.97 sec. (88984.51 ticks, tree = 60.73 MB, solutions = 26)
 174254 120750   2.80999e+07    22   2.81821e+07   2.80999e+07  2326954    0.29%
 174255 120751   2.80999e+07    21   2.81821e+07   2.80999e+07  2326959    0.29%
 174256 120752   2.80999e+07    26   2.81821e+07   2.80999e+07  2326963    0.29%
 174257 120753   2.80999e+07    23   2.81821e+07   2.80999e+07  2326964    0.29%
 174258 120754   2.80999e+07    23   2.81821e+07   2.80999e+07  2326965    0.29%
 174259 120755   2.80999e+07    24   2.81821e+07   2.80999e+07  2326966    0.29%
 174260 120756   2.80999e+07    24   2.81821e+07   2.80999e+07  2326978    0.29%
 174261 120757   2.80999e+07    26   2.81821e+07   2.80999e+07  2326980    0.29%
 174262 120758   2.80999e+07    27   2.81821e+07   2.80999e+07  2326987    0.29%
 174263 120759   2.80999e+07    27   2.81821e+07   2.80999e+07  2326990    0.29%
Elapsed time = 83.51 sec. (92801.52 ticks, tree = 63.77 MB, solutions = 26)
*175899+121453                       2.81772e+07   2.80999e+07             0.27%
 181412 125414   2.81015e+07    32   2.81772e+07   2.80999e+07  2417805    0.27%
 181413 125415   2.81015e+07    32   2.81772e+07   2.80999e+07  2417806    0.27%
 181414 125416   2.81015e+07    32   2.81772e+07   2.80999e+07  2417807    0.27%
 181415 125417   2.81015e+07    34   2.81772e+07   2.80999e+07  2417813    0.27%
 181416 125418   2.81015e+07    32   2.81772e+07   2.80999e+07  2417816    0.27%
 181417 125419   2.81015e+07    32   2.81772e+07   2.80999e+07  2417820    0.27%
 181418 125420   2.81015e+07    32   2.81772e+07   2.80999e+07  2417821    0.27%
 181419 125421   2.81015e+07    32   2.81772e+07   2.80999e+07  2417822    0.27%
 181420 125422   2.81015e+07    33   2.81772e+07   2.80999e+07  2417824    0.27%
 181421 125423   2.81015e+07    31   2.81772e+07   2.80999e+07  2417825    0.27%
Elapsed time = 87.04 sec. (96618.19 ticks, tree = 66.00 MB, solutions = 27)
*184699+126875                       2.81614e+07   2.80999e+07             0.22%
 188499 129768   2.80999e+07    24   2.81614e+07   2.80999e+07  2504994    0.22%
 188500 129769   2.80999e+07    26   2.81614e+07   2.80999e+07  2504998    0.22%
 188501 129770   2.80999e+07    26   2.81614e+07   2.80999e+07  2505005    0.22%
 188502 129771   2.81002e+07    19   2.81614e+07   2.80999e+07  2505061    0.22%
 188503 129772   2.81002e+07    20   2.81614e+07   2.80999e+07  2505120    0.22%
 188504 129773   2.81002e+07    20   2.81614e+07   2.80999e+07  2505121    0.22%
 188505 129774   2.81002e+07    19   2.81614e+07   2.80999e+07  2505155    0.22%
 188506 129775   2.81002e+07    21   2.81614e+07   2.80999e+07  2505170    0.22%
 188507 129776   2.81002e+07    19   2.81614e+07   2.80999e+07  2505196    0.22%
 188508 129777   2.81002e+07    22   2.81614e+07   2.80999e+07  2505211    0.22%
Elapsed time = 90.61 sec. (100440.89 ticks, tree = 68.06 MB, solutions = 28)
*189299+128396                       2.81419e+07   2.80999e+07             0.15%
*189299+128378                       2.81414e+07   2.80999e+07             0.15%
*189299+128190                       2.81394e+07   2.80999e+07             0.14%
 191299 129608   2.80999e+07    27   2.81394e+07   2.80999e+07  2547417    0.14%
 191300 129609   2.80999e+07    25   2.81394e+07   2.80999e+07  2547439    0.14%
 191301 129610   2.80999e+07    26   2.81394e+07   2.80999e+07  2547462    0.14%
 191302 129611   2.80999e+07    26   2.81394e+07   2.80999e+07  2547515    0.14%
 191303 129612   2.80999e+07    27   2.81394e+07   2.80999e+07  2547518    0.14%
 191304 129613   2.80999e+07    25   2.81394e+07   2.80999e+07  2547524    0.14%
 191305 129614   2.80999e+07    25   2.81394e+07   2.80999e+07  2547528    0.14%
 191306 129615   2.80999e+07    26   2.81394e+07   2.80999e+07  2547531    0.14%
 191307 129616   2.80999e+07    26   2.81394e+07   2.80999e+07  2547532    0.14%
 191308 129617   2.80999e+07    27   2.81394e+07   2.80999e+07  2547543    0.14%
Elapsed time = 94.05 sec. (104315.12 ticks, tree = 67.78 MB, solutions = 31)
 197155 133845   2.81044e+07    24   2.81394e+07   2.80999e+07  2626786    0.14%
 197156 133846   2.81044e+07    20   2.81394e+07   2.80999e+07  2626790    0.14%
 197157 133847   2.81044e+07    23   2.81394e+07   2.80999e+07  2626793    0.14%
 197158 133848   2.81044e+07    22   2.81394e+07   2.80999e+07  2626794    0.14%
 197159 133849   2.81045e+07    21   2.81394e+07   2.80999e+07  2626800    0.14%
 197160 133850   2.81045e+07    21   2.81394e+07   2.80999e+07  2626801    0.14%
 197161 133851   2.81045e+07    20   2.81394e+07   2.80999e+07  2626805    0.14%
 197162 133852   2.81045e+07    20   2.81394e+07   2.80999e+07  2626806    0.14%
 197163 133853   2.81115e+07    21   2.81394e+07   2.80999e+07  2626813    0.14%
 197164 133854   2.81121e+07    19   2.81394e+07   2.80999e+07  2626817    0.14%
Elapsed time = 97.53 sec. (108131.74 ticks, tree = 71.56 MB, solutions = 31)
*198199+130274                       2.81249e+07   2.80999e+07             0.09%

Cover cuts applied:  354
Mixed integer rounding cuts applied:  6
Zero-half cuts applied:  1
Gomory fractional cuts applied:  5

Root node processing (before b&c):
  Real time             =    0.04 sec. (38.88 ticks)
Sequential b&c:
  Real time             =   99.96 sec. (110802.43 ticks)
                          ------------
Total (root+branch&cut) =  100.00 sec. (110841.30 ticks)

Solution pool: 32 solutions saved.

MIP - Time limit exceeded, integer feasible:  Objective =  2.8124937000e+07
Current MIP best bound =  2.8099855000e+07 (gap = 25082, 0.09%)
Solution time =  100.00 sec.  Iterations = 2682646  Nodes = 201499 (132530)
Deterministic time = 110841.31 ticks  (1108.41 ticks/sec)


Incumbent solution written to file '/tmp/tmpdZ7PJd.cplex.sol'.
